coords = array2d(1..56, 1..2, [897, 164, 303, 875, 985, 606, 481, 657, 69, 124,
    987, 779, 144, 856, 423, 211, 325, 497, 38, 500, 342, 197, 303,
    354, 306, 794, 297, 630, 192, 338, 408, 221, 478, 414, 871, 150,
    271, 384, 487, 97, 448, 190, 103, 313, 385, 718, 166, 313, 823,
    192, 361, 755, 180, 201, 9, 907, 231, 429, 612, 438, 748, 872,
    965, 527, 984, 537, 407, 157, 319, 959, 229, 928, 170, 707, 480,
    738, 801, 724, 787, 492, 857, 811, 545, 54, 912, 35, 65, 661, 326,
    419, 840, 952, 855, 921, 768, 217, 564, 673, 897, 941, 885, 619,
    284, 830, 675, 192, 552, 593, 428, 951, 592, 98]);

n = 56;

